c FILE: i080-311

c SOURCE: From steinlib

c DESCRIPTION: Steinlib instance with 80 nodes and 350 edges.

p edge 80 350
e 1 9
e 1 10
e 1 12
e 1 20
e 1 23
e 1 25
e 1 35
e 1 42
e 1 44
e 1 46
e 1 47
e 1 66
e 1 67
e 1 69
e 2 5
e 2 10
e 2 30
e 2 39
e 2 40
e 2 50
e 2 66
e 2 69
e 2 73
e 3 15
e 3 24
e 3 32
e 3 33
e 3 36
e 3 47
e 3 54
e 3 68
e 3 73
e 4 13
e 4 19
e 4 23
e 4 25
e 4 33
e 4 61
e 4 65
e 4 66
e 5 10
e 5 21
e 5 31
e 5 47
e 5 52
e 5 67
e 5 73
e 5 75
e 5 76
e 6 10
e 6 15
e 6 22
e 6 28
e 6 41
e 6 66
e 6 69
e 6 72
e 7 16
e 7 18
e 7 28
e 7 37
e 7 50
e 7 54
e 7 74
e 7 76
e 8 9
e 8 13
e 8 18
e 8 29
e 8 38
e 8 43
e 8 67
e 8 73
e 8 75
e 9 21
e 9 39
e 9 40
e 9 42
e 9 45
e 9 54
e 9 62
e 9 75
e 9 77
e 9 78
e 10 15
e 10 17
e 10 22
e 10 23
e 10 33
e 10 36
e 10 48
e 10 50
e 10 53
e 10 71
e 11 35
e 11 80
e 12 22
e 12 23
e 12 26
e 12 30
e 12 31
e 12 48
e 12 65
e 12 78
e 13 20
e 13 25
e 13 28
e 13 33
e 13 37
e 13 38
e 13 40
e 13 54
e 13 55
e 13 62
e 13 70
e 14 24
e 14 30
e 14 32
e 14 34
e 14 37
e 14 38
e 14 47
e 14 59
e 14 63
e 14 69
e 15 29
e 15 41
e 15 46
e 15 57
e 15 75
e 15 80
e 16 18
e 16 36
e 16 42
e 16 53
e 16 62
e 16 75
e 17 29
e 17 32
e 17 35
e 17 75
e 17 77
e 17 80
e 18 26
e 18 31
e 18 53
e 19 27
e 19 35
e 19 41
e 19 42
e 19 51
e 19 53
e 19 65
e 20 25
e 20 29
e 20 37
e 20 38
e 20 45
e 20 49
e 20 63
e 20 80
e 21 24
e 21 43
e 21 67
e 21 75
e 22 26
e 22 33
e 22 34
e 22 37
e 22 59
e 22 62
e 22 78
e 23 28
e 23 41
e 23 43
e 23 45
e 23 57
e 23 65
e 23 68
e 23 73
e 24 30
e 24 42
e 24 47
e 24 53
e 24 55
e 24 63
e 24 64
e 24 68
e 24 69
e 24 74
e 25 43
e 25 74
e 25 78
e 26 37
e 26 43
e 26 45
e 26 52
e 26 72
e 26 73
e 27 28
e 27 29
e 27 48
e 27 55
e 27 77
e 28 29
e 28 39
e 28 47
e 28 50
e 28 68
e 29 32
e 29 34
e 29 51
e 29 58
e 29 64
e 30 32
e 30 33
e 30 40
e 30 51
e 30 54
e 30 69
e 30 71
e 30 79
e 31 44
e 31 65
e 31 67
e 33 35
e 33 38
e 33 47
e 33 70
e 34 38
e 34 48
e 34 70
e 34 71
e 35 42
e 35 52
e 35 62
e 35 63
e 36 43
e 36 56
e 36 63
e 36 65
e 36 67
e 36 70
e 36 72
e 37 45
e 37 47
e 37 53
e 37 58
e 37 79
e 38 45
e 38 48
e 38 54
e 38 74
e 38 75
e 39 58
e 39 65
e 39 68
e 40 51
e 40 61
e 40 63
e 40 75
e 40 76
e 41 49
e 41 52
e 41 54
e 41 59
e 41 62
e 41 77
e 42 45
e 42 52
e 42 58
e 42 67
e 42 68
e 42 71
e 43 45
e 43 49
e 43 50
e 43 67
e 44 54
e 44 55
e 44 72
e 44 75
e 44 77
e 45 53
e 45 56
e 46 61
e 46 68
e 46 70
e 46 79
e 47 53
e 47 80
e 48 51
e 48 63
e 48 76
e 48 77
e 48 78
e 49 55
e 49 66
e 49 76
e 50 51
e 50 52
e 50 53
e 50 68
e 52 58
e 52 60
e 52 74
e 52 77
e 53 54
e 53 67
e 53 68
e 53 71
e 54 55
e 54 56
e 54 64
e 54 71
e 55 58
e 55 59
e 55 61
e 55 65
e 55 66
e 55 69
e 56 68
e 57 76
e 58 63
e 58 69
e 59 67
e 59 69
e 59 74
e 60 63
e 60 75
e 60 78
e 61 75
e 61 79
e 62 65
e 63 73
e 63 76
e 66 72
e 67 70
e 67 77
e 69 70
e 69 74
e 69 77
e 70 76
e 71 80
e 72 78
e 74 78
e 74 79
e 74 80
e 76 79
e 77 78
